15 56
13 10
6 12
1 10
4 10
12 10
4 11
8 11
10 12
4 10
6 10
3 11
5 10
8 11
7 12
9 12
9 10
13 11
11 11
2 11
7 11
8 12
8 12
9 12
2 10
6 12
10 11
14 10
9 11
10 12
5 10
4 10
1 12
4 10
6 10
1 10
3 10
4 10
9 10
2 12
4 10
14 12
4 11
4 11
8 11
1 10
2 11
10 11
10 11
1 10
11 11
5 12
8 10
4 11
12 12
3 10
8 12
